
Gurobi 11.0.2 (win64) logging started Tue Jun 25 15:13:28 2024


Gurobi 11.0.2 (win64) logging started Tue Jun 25 15:14:48 2024


Gurobi 11.0.2 (win64) logging started Tue Jun 25 15:14:48 2024


Gurobi 11.0.2 (win64) logging started Tue Jun 25 15:14:48 2024


Gurobi 11.0.2 (win64) logging started Tue Jun 25 15:14:49 2024


Gurobi 11.0.2 (win64) logging started Tue Jun 25 15:14:49 2024


Gurobi 11.0.2 (win64) logging started Tue Jun 25 15:14:49 2024


Gurobi 11.0.2 (win64) logging started Tue Jun 25 15:14:52 2024


Gurobi 11.0.2 (win64) logging started Tue Jun 25 15:15:18 2024


Gurobi 11.0.2 (win64) logging started Tue Jun 25 15:15:18 2024


Gurobi 11.0.2 (win64) logging started Tue Jun 25 15:15:18 2024


Gurobi 11.0.2 (win64) logging started Tue Jun 25 15:15:18 2024


Gurobi 11.0.2 (win64) logging started Tue Jun 25 15:15:18 2024


Gurobi 11.0.2 (win64) logging started Tue Jun 25 15:15:18 2024


Gurobi 11.0.2 (win64) logging started Tue Jun 25 15:15:19 2024


Gurobi 11.0.2 (win64) logging started Tue Jun 25 15:17:06 2024


Gurobi 11.0.2 (win64) logging started Tue Jun 25 15:17:06 2024


Gurobi 11.0.2 (win64) logging started Tue Jun 25 15:17:06 2024


Gurobi 11.0.2 (win64) logging started Tue Jun 25 15:17:06 2024


Gurobi 11.0.2 (win64) logging started Tue Jun 25 15:17:06 2024


Gurobi 11.0.2 (win64) logging started Tue Jun 25 15:17:06 2024


Gurobi 11.0.2 (win64) logging started Tue Jun 25 15:17:07 2024


Gurobi 11.0.2 (win64) logging started Tue Jun 25 15:17:43 2024


Gurobi 11.0.2 (win64) logging started Tue Jun 25 15:17:43 2024


Gurobi 11.0.2 (win64) logging started Tue Jun 25 15:17:43 2024


Gurobi 11.0.2 (win64) logging started Tue Jun 25 15:17:43 2024


Gurobi 11.0.2 (win64) logging started Tue Jun 25 15:17:44 2024


Gurobi 11.0.2 (win64) logging started Tue Jun 25 15:17:44 2024


Gurobi 11.0.2 (win64) logging started Tue Jun 25 15:17:46 2024


Gurobi 11.0.2 (win64) logging started Tue Jun 25 15:19:16 2024


Gurobi 11.0.2 (win64) logging started Tue Jun 25 15:19:16 2024


Gurobi 11.0.2 (win64) logging started Tue Jun 25 15:19:16 2024


Gurobi 11.0.2 (win64) logging started Tue Jun 25 15:19:17 2024


Gurobi 11.0.2 (win64) logging started Tue Jun 25 15:19:19 2024


Gurobi 11.0.2 (win64) logging started Tue Jun 25 15:19:19 2024


Gurobi 11.0.2 (win64) logging started Tue Jun 25 15:19:21 2024


Gurobi 11.0.2 (win64) logging started Tue Jun 25 15:19:55 2024


Gurobi 11.0.2 (win64) logging started Tue Jun 25 15:19:55 2024


Gurobi 11.0.2 (win64) logging started Tue Jun 25 15:19:55 2024


Gurobi 11.0.2 (win64) logging started Tue Jun 25 15:19:55 2024


Gurobi 11.0.2 (win64) logging started Tue Jun 25 15:19:55 2024


Gurobi 11.0.2 (win64) logging started Tue Jun 25 15:19:56 2024


Gurobi 11.0.2 (win64) logging started Tue Jun 25 15:19:56 2024


Gurobi 11.0.2 (win64) logging started Tue Jun 25 15:20:41 2024


Gurobi 11.0.2 (win64) logging started Tue Jun 25 15:20:41 2024


Gurobi 11.0.2 (win64) logging started Tue Jun 25 15:20:41 2024


Gurobi 11.0.2 (win64) logging started Tue Jun 25 15:20:41 2024


Gurobi 11.0.2 (win64) logging started Tue Jun 25 15:20:42 2024


Gurobi 11.0.2 (win64) logging started Tue Jun 25 15:20:42 2024


Gurobi 11.0.2 (win64) logging started Tue Jun 25 15:20:46 2024


Gurobi 11.0.2 (win64) logging started Tue Jun 25 15:21:45 2024


Gurobi 11.0.2 (win64) logging started Tue Jun 25 15:21:45 2024


Gurobi 11.0.2 (win64) logging started Tue Jun 25 15:21:45 2024


Gurobi 11.0.2 (win64) logging started Tue Jun 25 15:21:45 2024


Gurobi 11.0.2 (win64) logging started Tue Jun 25 15:21:45 2024


Gurobi 11.0.2 (win64) logging started Tue Jun 25 15:21:46 2024


Gurobi 11.0.2 (win64) logging started Tue Jun 25 15:21:51 2024


Gurobi 11.0.2 (win64) logging started Tue Jun 25 15:23:56 2024


Gurobi 11.0.2 (win64) logging started Tue Jun 25 15:23:56 2024


Gurobi 11.0.2 (win64) logging started Tue Jun 25 15:23:56 2024


Gurobi 11.0.2 (win64) logging started Tue Jun 25 15:23:56 2024


Gurobi 11.0.2 (win64) logging started Tue Jun 25 15:23:56 2024


Gurobi 11.0.2 (win64) logging started Tue Jun 25 15:23:57 2024


Gurobi 11.0.2 (win64) logging started Tue Jun 25 15:23:58 2024


Gurobi 11.0.2 (win64) logging started Tue Jun 25 15:28:27 2024


Gurobi 11.0.2 (win64) logging started Tue Jun 25 15:33:35 2024


Gurobi 11.0.2 (win64) logging started Tue Jun 25 15:33:35 2024


Gurobi 11.0.2 (win64) logging started Tue Jun 25 15:33:35 2024


Gurobi 11.0.2 (win64) logging started Tue Jun 25 15:33:35 2024


Gurobi 11.0.2 (win64) logging started Tue Jun 25 15:33:35 2024


Gurobi 11.0.2 (win64) logging started Tue Jun 25 15:33:35 2024


Gurobi 11.0.2 (win64) logging started Tue Jun 25 15:33:38 2024


Gurobi 11.0.2 (win64) logging started Tue Jun 25 15:34:13 2024


Gurobi 11.0.2 (win64) logging started Tue Jun 25 15:34:13 2024


Gurobi 11.0.2 (win64) logging started Tue Jun 25 15:34:13 2024


Gurobi 11.0.2 (win64) logging started Tue Jun 25 15:34:14 2024


Gurobi 11.0.2 (win64) logging started Tue Jun 25 15:34:14 2024


Gurobi 11.0.2 (win64) logging started Tue Jun 25 15:34:15 2024


Gurobi 11.0.2 (win64) logging started Tue Jun 25 15:34:16 2024


Gurobi 11.0.2 (win64) logging started Tue Jun 25 15:35:28 2024


Gurobi 11.0.2 (win64) logging started Tue Jun 25 15:35:28 2024


Gurobi 11.0.2 (win64) logging started Tue Jun 25 15:35:28 2024


Gurobi 11.0.2 (win64) logging started Tue Jun 25 15:35:29 2024


Gurobi 11.0.2 (win64) logging started Tue Jun 25 15:35:29 2024


Gurobi 11.0.2 (win64) logging started Tue Jun 25 15:35:44 2024


Gurobi 11.0.2 (win64) logging started Tue Jun 25 15:35:54 2024


Gurobi 11.0.2 (win64) logging started Tue Jun 25 15:35:56 2024


Gurobi 11.0.2 (win64) logging started Tue Jun 25 23:39:16 2024


Gurobi 11.0.2 (win64) logging started Tue Jun 25 23:39:16 2024


Gurobi 11.0.2 (win64) logging started Tue Jun 25 23:39:16 2024


Gurobi 11.0.2 (win64) logging started Tue Jun 25 23:39:16 2024


Gurobi 11.0.2 (win64) logging started Tue Jun 25 23:39:16 2024


Gurobi 11.0.2 (win64) logging started Tue Jun 25 23:39:16 2024


Gurobi 11.0.2 (win64) logging started Tue Jun 25 23:39:16 2024


Gurobi 11.0.2 (win64) logging started Tue Jun 25 23:39:16 2024


Gurobi 11.0.2 (win64) logging started Tue Jun 25 23:39:16 2024


Gurobi 11.0.2 (win64) logging started Tue Jun 25 23:39:16 2024


Gurobi 11.0.2 (win64) logging started Tue Jun 25 23:39:16 2024


Gurobi 11.0.2 (win64) logging started Tue Jun 25 23:39:16 2024


Gurobi 11.0.2 (win64) logging started Tue Jun 25 23:39:16 2024


Gurobi 11.0.2 (win64) logging started Tue Jun 25 23:39:17 2024


Gurobi 11.0.2 (win64) logging started Tue Jun 25 23:39:17 2024


Gurobi 11.0.2 (win64) logging started Tue Jun 25 23:39:17 2024


Gurobi 11.0.2 (win64) logging started Tue Jun 25 23:39:17 2024


Gurobi 11.0.2 (win64) logging started Tue Jun 25 23:39:17 2024


Gurobi 11.0.2 (win64) logging started Tue Jun 25 23:39:17 2024


Gurobi 11.0.2 (win64) logging started Tue Jun 25 23:39:17 2024


Gurobi 11.0.2 (win64) logging started Tue Jun 25 23:39:17 2024


Gurobi 11.0.2 (win64) logging started Tue Jun 25 23:39:17 2024


Gurobi 11.0.2 (win64) logging started Tue Jun 25 23:39:17 2024


Gurobi 11.0.2 (win64) logging started Tue Jun 25 23:39:17 2024


Gurobi 11.0.2 (win64) logging started Tue Jun 25 23:39:17 2024


Gurobi 11.0.2 (win64) logging started Tue Jun 25 23:39:17 2024


Gurobi 11.0.2 (win64) logging started Tue Jun 25 23:39:17 2024


Gurobi 11.0.2 (win64) logging started Tue Jun 25 23:39:17 2024


Gurobi 11.0.2 (win64) logging started Tue Jun 25 23:39:17 2024


Gurobi 11.0.2 (win64) logging started Tue Jun 25 23:39:17 2024


Gurobi 11.0.2 (win64) logging started Tue Jun 25 23:39:17 2024


Gurobi 11.0.2 (win64) logging started Tue Jun 25 23:39:17 2024


Gurobi 11.0.2 (win64) logging started Tue Jun 25 23:39:18 2024


Gurobi 11.0.2 (win64) logging started Tue Jun 25 23:39:18 2024


Gurobi 11.0.2 (win64) logging started Tue Jun 25 23:39:18 2024


Gurobi 11.0.2 (win64) logging started Tue Jun 25 23:39:18 2024


Gurobi 11.0.2 (win64) logging started Tue Jun 25 23:39:19 2024


Gurobi 11.0.2 (win64) logging started Tue Jun 25 23:39:19 2024


Gurobi 11.0.2 (win64) logging started Tue Jun 25 23:39:19 2024


Gurobi 11.0.2 (win64) logging started Tue Jun 25 23:39:19 2024


Gurobi 11.0.2 (win64) logging started Tue Jun 25 23:39:19 2024


Gurobi 11.0.2 (win64) logging started Tue Jun 25 23:39:19 2024


Gurobi 11.0.2 (win64) logging started Tue Jun 25 23:39:20 2024


Gurobi 11.0.2 (win64) logging started Tue Jun 25 23:39:20 2024


Gurobi 11.0.2 (win64) logging started Tue Jun 25 23:39:20 2024


Gurobi 11.0.2 (win64) logging started Tue Jun 25 23:39:20 2024


Gurobi 11.0.2 (win64) logging started Tue Jun 25 23:39:20 2024


Gurobi 11.0.2 (win64) logging started Tue Jun 25 23:39:21 2024


Gurobi 11.0.2 (win64) logging started Tue Jun 25 23:39:21 2024


Gurobi 11.0.2 (win64) logging started Tue Jun 25 23:39:22 2024


Gurobi 11.0.2 (win64) logging started Tue Jun 25 23:39:22 2024


Gurobi 11.0.2 (win64) logging started Tue Jun 25 23:39:23 2024


Gurobi 11.0.2 (win64) logging started Tue Jun 25 23:39:23 2024


Gurobi 11.0.2 (win64) logging started Tue Jun 25 23:39:25 2024


Gurobi 11.0.2 (win64) logging started Tue Jun 25 23:39:41 2024


Gurobi 11.0.2 (win64) logging started Tue Jun 25 23:39:44 2024


Gurobi 11.0.2 (win64) logging started Tue Jun 25 23:39:50 2024


Gurobi 11.0.2 (win64) logging started Tue Jun 25 23:40:20 2024


Gurobi 11.0.2 (win64) logging started Tue Jun 25 23:40:22 2024


Gurobi 11.0.2 (win64) logging started Tue Jun 25 23:40:23 2024


Gurobi 11.0.2 (win64) logging started Tue Jun 25 23:40:26 2024


Gurobi 11.0.2 (win64) logging started Tue Jun 25 23:40:27 2024


Gurobi 11.0.2 (win64) logging started Tue Jun 25 23:40:34 2024


Gurobi 11.0.2 (win64) logging started Tue Jun 25 23:40:35 2024


Gurobi 11.0.2 (win64) logging started Tue Jun 25 23:40:36 2024


Gurobi 11.0.2 (win64) logging started Tue Jun 25 23:40:42 2024


Gurobi 11.0.2 (win64) logging started Tue Jun 25 23:40:43 2024


Gurobi 11.0.2 (win64) logging started Tue Jun 25 23:40:44 2024


Gurobi 11.0.2 (win64) logging started Tue Jun 25 23:40:48 2024


Gurobi 11.0.2 (win64) logging started Tue Jun 25 23:40:50 2024


Gurobi 11.0.2 (win64) logging started Tue Jun 25 23:40:52 2024


Gurobi 11.0.2 (win64) logging started Tue Jun 25 23:41:00 2024


Gurobi 11.0.2 (win64) logging started Tue Jun 25 23:41:03 2024


Gurobi 11.0.2 (win64) logging started Tue Jun 25 23:41:07 2024


Gurobi 11.0.2 (win64) logging started Tue Jun 25 23:41:10 2024


Gurobi 11.0.2 (win64) logging started Tue Jun 25 23:41:40 2024


Gurobi 11.0.2 (win64) logging started Tue Jun 25 23:41:53 2024


Gurobi 11.0.2 (win64) logging started Tue Jun 25 23:42:23 2024


Gurobi 11.0.2 (win64) logging started Tue Jun 25 23:42:36 2024


Gurobi 11.0.2 (win64) logging started Tue Jun 25 23:42:52 2024


Gurobi 11.0.2 (win64) logging started Tue Jun 25 23:43:10 2024


Gurobi 11.0.2 (win64) logging started Tue Jun 25 23:43:40 2024


Gurobi 11.0.2 (win64) logging started Tue Jun 25 23:44:10 2024


Gurobi 11.0.2 (win64) logging started Tue Jun 25 23:44:25 2024


Gurobi 11.0.2 (win64) logging started Tue Jun 25 23:44:27 2024


Gurobi 11.0.2 (win64) logging started Tue Jun 25 23:44:53 2024


Gurobi 11.0.2 (win64) logging started Tue Jun 25 23:45:23 2024


Gurobi 11.0.2 (win64) logging started Tue Jun 25 23:45:25 2024


Gurobi 11.0.2 (win64) logging started Tue Jun 25 23:45:41 2024


Gurobi 11.0.2 (win64) logging started Tue Jun 25 23:45:42 2024

